/* Objective function */
min: +C16 +C17 +C18;

/* Constraints */
+21 C1 +C2 +31 C3 +61 C4 +27 C5 <= 62;
+21 C6 +C7 +31 C8 +61 C9 +27 C10 <= 62;
+21 C11 +C12 +31 C13 +61 C14 +27 C15 <= 62;
+90 C1 +116 C2 +82 C3 +37 C4 +7 C5 <= 162;
+90 C6 +116 C7 +82 C8 +37 C9 +7 C10 <= 162;
+90 C11 +116 C12 +82 C13 +37 C14 +7 C15 <= 162;
+C1 +C6 +C11 = 1;
+C2 +C7 +C12 = 1;
+C3 +C8 +C13 = 1;
+C4 +C9 +C14 = 1;
+C5 +C10 +C15 = 1;
+90 C1 +116 C2 +82 C3 +37 C4 +7 C5 -90 C6 -116 C7 -82 C8 -37 C9 -7 C10 -C16 <= 0;
-90 C1 -116 C2 -82 C3 -37 C4 -7 C5 +90 C6 +116 C7 +82 C8 +37 C9 +7 C10 -C16 <= 0;
+90 C1 +116 C2 +82 C3 +37 C4 +7 C5 -90 C11 -116 C12 -82 C13 -37 C14 -7 C15 -C17 <= 0;
-90 C1 -116 C2 -82 C3 -37 C4 -7 C5 +90 C11 +116 C12 +82 C13 +37 C14 +7 C15 -C17 <= 0;
+90 C6 +116 C7 +82 C8 +37 C9 +7 C10 -90 C11 -116 C12 -82 C13 -37 C14 -7 C15 -C18 <= 0;
-90 C6 -116 C7 -82 C8 -37 C9 -7 C10 +90 C11 +116 C12 +82 C13 +37 C14 +7 C15 -C18 <= 0;

/* Variable bounds */
C1 <= 1;
C2 <= 1;
C3 <= 1;
C4 <= 1;
C5 <= 1;
C6 <= 1;
C7 <= 1;
C8 <= 1;
C9 <= 1;
C10 <= 1;
C11 <= 1;
C12 <= 1;
C13 <= 1;
C14 <= 1;
C15 <= 1;

/* Integer definitions */
int C1,C2,C3,C4,C5,C6,C7,C8,C9,C10,C11,C12,C13,C14,C15,C16,C17,C18;
